# Objective value = 303.848829004992
x[0] 1
x[1] 1
x[2] 1
x[3] 0
x[4] 0
x[5] 1
x[6] 0
x[7] 0
x[8] 1.0000002208024892e+00
x[9] 1
x[10] 1
x[11] 0
x[12] 0
x[13] 1
x[14] 1
x[15] 1
x[16] 0
x[17] 1
x[18] 0
x[19] 1
x[20] 0
x[21] 1
x[22] 1
x[23] 1
x[24] 0
x[25] 0
x[26] 1
x[27] 0
x[28] 0
x[29] 0
x[30] 1
x[31] 0
x[32] 1
x[33] 0
x[34] 1
x[35] 1
x[36] 0
x[37] 1
x[38] 0
x[39] 0
x[40] 1
x[41] 1
x[42] 0
x[43] 1
x[44] 0
x[45] 0
x[46] 0
x[47] 1
x[48] 1
x[49] 1
x[50] 1
x[51] 1
x[52] 1
x[53] 0
x[54] 1
x[55] 0
x[56] 1
x[57] 1
x[58] 1
x[59] 0
x[60] 1
x[61] 1
x[62] 0
x[63] 0
x[64] 1
x[65] 1
x[66] 0
x[67] 0
x[68] 1
x[69] 1
x[70] 0
x[71] 1
x[72] 1
x[73] 0
x[74] 1
x[75] 1
x[76] 1
x[77] 1
x[78] 1
x[79] 0
x[80] 1
x[81] 1
x[82] 0
x[83] 1
x[84] 0
x[85] 1
x[86] 1
x[87] 1
x[88] 1
x[89] 1
x[90] 0
x[91] 0
x[92] 1
x[93] 0
x[94] 1
x[95] 0
x[96] 0
x[97] 0
x[98] 1
x[99] 0
x[100] 0
x[101] 1
x[102] 0
x[103] 1
x[104] 0
x[105] 1
x[106] 1
x[107] 1
x[108] 1
x[109] 1
x[110] 1
x[111] 0
x[112] 0
x[113] 0
x[114] 0
x[115] 0
x[116] 1
x[117] 0
x[118] 0
x[119] 0
x[120] 1
x[121] 0
x[122] 0
x[123] 0
x[124] 0
x[125] 1
x[126] 1
x[127] 0
x[128] 1
x[129] 0
x[130] 0
x[131] 1
x[132] 0
x[133] 0
x[134] 1
x[135] 0
x[136] 1
x[137] 0
x[138] 1
x[139] 0
x[140] 0
x[141] 0
x[142] 0
x[143] 1
x[144] 1
x[145] 1
x[146] 0
x[147] 0
x[148] 1
x[149] 0
x[150] 0
x[151] 1
x[152] 0
x[153] 0
x[154] 0
x[155] 1
x[156] 1
x[157] 1
x[158] 1
x[159] 0
x[160] 0
x[161] 1
x[162] 1
x[163] 9.9999977777777871e-01
x[164] 0
x[165] 0
x[166] 0
x[167] 1
x[168] 1
x[169] 0
x[170] 0
x[171] 1
x[172] 1
x[173] 0
x[174] 0
x[175] 1
x[176] 1
x[177] 1
x[178] 0
x[179] 0
x[180] 0
x[181] 0
x[182] 1
x[183] 0
x[184] 0
x[185] 0
x[186] 0
x[187] 0
x[188] 1
x[189] 1
x[190] 1
x[191] 1
x[192] 1
x[193] 1
x[194] 0
x[195] 0
x[196] 0
x[197] 0
x[198] 1
x[199] 0
x[200] 1
x[201] 0
x[202] 0
x[203] 1
x[204] 0
x[205] 0
x[206] 0
x[207] 1
x[208] 0
x[209] 1
x[210] 1
x[211] 1
x[212] 0
x[213] 1
x[214] 0
x[215] 0
x[216] 1
x[217] 1
x[218] 1
x[219] 1
x[220] 1
x[221] 1
x[222] 0
x[223] 1
x[224] 1
x[225] 0
x[226] 1
x[227] 0
x[228] 0
x[229] 1
x[230] 0
x[231] 0
x[232] 0
x[233] 1
x[234] 0
x[235] 0
x[236] 1
x[237] 1
x[238] 1
x[239] 0
x[240] 0
x[241] 1
x[242] 0
x[243] 1
x[244] 1
x[245] 1
x[246] 0
x[247] 1
x[248] 0
x[249] 0
x[250] 1
x[251] 0
x[252] 0
x[253] 1
x[254] 1
x[255] 1
x[256] 1
x[257] 1
x[258] 0
x[259] 1
x[260] 1
x[261] 1
x[262] 0
x[263] 0
x[264] 1
x[265] 0
x[266] 0
x[267] 1
x[268] 0
x[269] 1
x[270] 1
x[271] 0
x[272] 0
x[273] 0
x[274] 1
x[275] 1
x[276] 0
x[277] 1
x[278] 0
x[279] 1
x[280] 1
x[281] 1
x[282] 0
x[283] 0
x[284] 1
x[285] 0
x[286] 1
x[287] 0
x[288] 1
x[289] 1
x[290] 0
x[291] 1
x[292] 0
x[293] 1
x[294] 0
x[295] 0
x[296] 0
x[297] 0
x[298] 1
x[299] 1
x[300] 0
x[301] 0
x[302] 0
x[303] 0
x[304] 0
x[305] -2.2222222122359314e-07
x[306] 1
x[307] 0
x[308] 1
x[309] 0
x[310] 0
x[311] 1
x[312] 1
x[313] 0
x[314] 1
x[315] 0
x[316] 0
x[317] 1
x[318] 0
x[319] 1
x[320] 1
x[321] 1
x[322] 0
x[323] 1
x[324] 1
x[325] 1
x[326] 1
x[327] 0
x[328] 0
x[329] 1
x[330] 0
x[331] 0
x[332] 0
x[333] 0
x[334] 1
x[335] 1
x[336] 1
x[337] 1
x[338] 1
x[339] 0
x[340] 1
x[341] 0
x[342] 0
x[343] 0
x[344] 0
x[345] 1
x[346] 0
x[347] 0
x[348] 0
x[349] 1
x[350] 0
x[351] 1
x[352] 0
x[353] 0
x[354] 0
x[355] 0
x[356] 0
x[357] 0
x[358] 1
x[359] 9.9999967000000145e-01
x[360] 1
x[361] 1
x[362] 1
x[363] 0
x[364] 0
x[365] 1
x[366] 1
x[367] 1
x[368] 0
x[369] 1
x[370] 0
x[371] 0
x[372] 1
x[373] 1
x[374] 0
x[375] 0
x[376] 0
x[377] 0
x[378] 0
x[379] 1
x[380] 1
x[381] 1
x[382] 0
x[383] 0
x[384] 0
x[385] 0
x[386] 0
x[387] 0
x[388] 0
x[389] 1
x[390] 6.06323755056353e-07
x[391] 1
x[392] 1
x[393] 1
x[394] 0
x[395] 0
x[396] 1
x[397] 1
x[398] 1
x[399] 0
x[400] 1
x[401] 0
x[402] 0
x[403] 0
x[404] 0
x[405] 0
x[406] 0
x[407] 1
x[408] 1
x[409] 0
x[410] 1
x[411] 0
x[412] 1
x[413] 0
x[414] 0
x[415] 0
x[416] 0
x[417] 0
x[418] 0
x[419] 0
x[420] 0
x[421] 0
x[422] 0
x[423] 0
x[424] 0
x[425] 1
x[426] 1
x[427] 0
x[428] 1
x[429] 0
x[430] 0
x[431] 0
x[432] 1
x[433] 1
x[434] 1
x[435] 1
x[436] 1
x[437] 1
x[438] 1
x[439] 0
x[440] 0
x[441] 1
x[442] 1.0000005545274269e+00
x[443] 0
x[444] 0
x[445] 1
x[446] 1
x[447] 1
x[448] 0
x[449] 1
x[450] 0
x[451] 1
x[452] 0
x[453] 0
x[454] 1
x[455] 1
x[456] 0
x[457] 1
x[458] 0
x[459] 0
x[460] 1
x[461] 0
x[462] 0
x[463] 0
x[464] 0
x[465] 0
x[466] 0
x[467] 1
x[468] 1
x[469] 1
x[470] 0
x[471] 1
x[472] 1
x[473] 0
x[474] 0
x[475] 0
x[476] 1
x[477] 1
x[478] 1
x[479] 1
x[480] 1
x[481] 0
x[482] 0
x[483] 1
x[484] 1
x[485] 0
x[486] 0
x[487] 1
x[488] 1
x[489] 1
x[490] 1
x[491] 1
x[492] 0
x[493] 0
x[494] 0
x[495] 1
x[496] 1
x[497] 1
x[498] 0
x[499] 0
x[500] 0
x[501] 1
x[502] 0
x[503] 1
x[504] 1
x[505] 1
x[506] 1
x[507] 1
x[508] 1
x[509] 0
x[510] 0
x[511] 1
x[512] 1
x[513] 1
x[514] 1
x[515] 0
x[516] 1
x[517] 0
x[518] 1
x[519] 0
x[520] 0
x[521] 0
x[522] 1
x[523] 1
x[524] 1
x[525] 1
x[526] 0
x[527] 1
x[528] 0
x[529] 0
x[530] 1
x[531] 1
x[532] 1
x[533] 1
x[534] 0
x[535] 0
x[536] 0
x[537] 0
x[538] 0
x[539] 0
x[540] 0
x[541] 0
x[542] 0
x[543] 1
x[544] 1
x[545] 1
x[546] 0
x[547] 0
x[548] 0
x[549] 0
x[550] 0
x[551] 1
x[552] 3.3193964150553559e-07
x[553] 1
x[554] 0
x[555] 0
x[556] 0
x[557] 0
x[558] 0
x[559] 1
x[560] 1.00000022122117
x[561] 1
x[562] 1
x[563] 0
x[564] 1
x[565] 1
x[566] 1
x[567] 1
x[568] 0
x[569] 0
x[570] 1
x[571] 0
x[572] 1
x[573] 0
x[574] 1
x[575] 0
x[576] 0
x[577] 1
x[578] 1
x[579] 0
x[580] 0
x[581] 1
x[582] 1
x[583] 0
x[584] 0
x[585] 1
x[586] 0
x[587] 0
x[588] 0
x[589] 1
x[590] 1
x[591] 1
x[592] 1
x[593] 0
x[594] 1
x[595] 0
x[596] 1
x[597] 1
x[598] 1
x[599] 1
x[600] 0
x[601] 0
x[602] 0
x[603] 1
x[604] 1
x[605] 0
x[606] 0
x[607] 1
x[608] 1
x[609] 0
x[610] 1
x[611] 0
x[612] 1
x[613] 1
x[614] 1
x[615] 1
x[616] 1
x[617] 0
x[618] 0
x[619] 0
x[620] 1
x[621] 1
x[622] 1
x[623] 0
x[624] 1
x[625] 0
x[626] 0
x[627] 1
x[628] 1
x[629] 0
x[630] 1
x[631] 1
x[632] 0
x[633] 1
x[634] 1
x[635] 0
x[636] 0
x[637] 1
x[638] 1
x[639] 1
x[640] 1
x[641] 0
x[642] 1
x[643] 1
x[644] 0
x[645] 1
x[646] 1
x[647] 0
x[648] 1
x[649] 1
x[650] 0
x[651] 1
x[652] 1
x[653] 1
x[654] 0
x[655] 0
x[656] 0
x[657] 0
x[658] 0
x[659] 1
x[660] 1
x[661] 1
x[662] 0
x[663] 0
x[664] 0
x[665] 0
x[666] 1
x[667] 0
x[668] 1
x[669] 0
x[670] 1
x[671] 1
x[672] 0
x[673] 1
x[674] 0
x[675] 1
x[676] 1
x[677] 0
x[678] 0
x[679] 0
x[680] 1
x[681] 0
x[682] 1
x[683] 0
x[684] 0
x[685] 0
x[686] 0
x[687] 0
x[688] 1
x[689] 1
x[690] 0
x[691] 1
x[692] 1
x[693] 1
x[694] 1
x[695] 0
x[696] -2.17469155922599e-07
x[697] 1
x[698] 1
x[699] 1
x[700] 0
x[701] 0
x[702] 0
x[703] 1
x[704] 1
x[705] 0
x[706] 1
x[707] 1
x[708] 0
x[709] 1
x[710] 1
x[711] 0
x[712] 0
x[713] 0
x[714] 0
x[715] 1
x[716] 0
x[717] 1
x[718] 0
x[719] 1
x[720] 0
x[721] 0
x[722] 1
x[723] 0
x[724] 0
x[725] 1
x[726] 1
x[727] 0
x[728] 0
x[729] 0
x[730] 0
x[731] 1
x[732] 0
x[733] 0
x[734] 1
x[735] 0
x[736] 0
x[737] 0
x[738] 0
x[739] 0
x[740] 1
x[741] 1
x[742] 1
x[743] 0
x[744] 0
x[745] 0
x[746] 0
x[747] 0
x[748] 0
x[749] 1
x[750] 0
x[751] 1
x[752] 1
x[753] 1
x[754] 1
x[755] 0
x[756] 0
x[757] 0
x[758] 0
x[759] 0
x[760] 0
x[761] 0
x[762] 0
x[763] 0
x[764] 0
x[765] 0
x[766] 1
x[767] 0
x[768] 1
x[769] 0
x[770] 0
x[771] 1
x[772] 1
x[773] 0
x[774] 1
x[775] 1
x[776] 0
x[777] 0
x[778] 1
x[779] 0
x[780] 0
x[781] 1
x[782] 1
x[783] 1
x[784] 0
x[785] 0
x[786] 1
x[787] 0
x[788] 1
x[789] 1
x[790] 0
x[791] 1
x[792] 0
x[793] 0
x[794] 1
x[795] 1
x[796] 1
x[797] 0
x[798] 0
x[799] 1
x[800] 0
x[801] 0
x[802] 0
x[803] 1
x[804] 1
x[805] 1
x[806] 1
x[807] 0
x[808] 1
x[809] 1
x[810] 0
x[811] 1
x[812] 1
x[813] 0
x[814] 1
x[815] 0
x[816] 0
x[817] 0
x[818] 0
x[819] 0
x[820] 0
x[821] 1
x[822] 1
x[823] 1
x[824] 0
x[825] 0
x[826] 1
x[827] 1
x[828] 0
x[829] 0
x[830] 0
x[831] 0
x[832] 0
x[833] 1
x[834] 1
x[835] 0
x[836] 0
x[837] 1
x[838] 1
x[839] 1
x[840] 1
x[841] 1
x[842] 1
x[843] 1
x[844] 1
x[845] 0
x[846] 1
x[847] 1
x[848] 0
x[849] 0
x[850] 1
x[851] 0
x[852] 1
x[853] 1
x[854] 1
x[855] 1
x[856] 0
x[857] 0
x[858] 1
x[859] 1
x[860] 0
x[861] 0
x[862] 0
x[863] 0
x[864] 1
x[865] 0
x[866] 0
x[867] 0
x[868] 1
x[869] 0
x[870] 1
x[871] 0
x[872] 0
x[873] 0
x[874] 0
x[875] 1
x[876] 0
x[877] 1
x[878] 0
x[879] 0
x[880] 0
x[881] 1
x[882] 0
x[883] 1
x[884] 1
x[885] 1
x[886] 1
x[887] 1
x[888] 1
x[889] 0
x[890] 1
x[891] 0
x[892] 0
x[893] 1
x[894] 1
x[895] 1
x[896] 0
x[897] 0
x[898] 0
x[899] 0
x[900] 0
x[901] 0
x[902] 1
x[903] 0
x[904] 0
x[905] 1
x[906] 0
x[907] 0
x[908] 1
x[909] 1
x[910] 1
x[911] 0
x[912] 0
x[913] 1
x[914] 1
x[915] 0
x[916] 1
x[917] 1
x[918] 1
x[919] 0
x[920] 1
x[921] 1
x[922] 1
x[923] 1
x[924] 0
x[925] 0
x[926] 1
x[927] 0
x[928] 1
x[929] 1
x[930] 0
x[931] 0
x[932] 0
x[933] 0
x[934] 1
x[935] -7.7344339175383088e-07
x[936] 1
x[937] 0
x[938] 1
x[939] 1
x[940] 0
x[941] 1
x[942] 0
x[943] 0
x[944] 1
x[945] 1
x[946] 1
x[947] 1
x[948] 1
x[949] 0
x[950] 1
x[951] 1
x[952] 0
x[953] 0
x[954] 1
x[955] 0
x[956] 1
x[957] 1
x[958] 1
x[959] 1
x[960] 1
x[961] 0
x[962] 0
x[963] 0
x[964] 1
x[965] 1
x[966] 0
x[967] 0
x[968] 0
x[969] 1
x[970] 0
x[971] 1
x[972] 0
x[973] 1
x[974] 0
x[975] 1
x[976] 0
x[977] 1
x[978] 0
x[979] 1
x[980] 1
x[981] 0
x[982] 0
x[983] 0
x[984] 1
x[985] 1
x[986] 1
x[987] 0
x[988] 0
x[989] 1
x[990] 0
x[991] 1
x[992] 1
x[993] 0
x[994] 1
x[995] 1
x[996] 1
x[997] 0
x[998] 1
x[999] 1
